# Objective value = 4347.06
I_0_0 1301
I_0_1 1699
I_0_2 1451
I_0_3 1.9989999999999998e+03
I_1_0 26
I_1_1 0
I_1_2 26
I_1_3 0
I_2_0 44
I_2_1 0
I_2_2 44
I_2_3 0
I_3_0 19
I_3_1 0
I_3_2 19
I_3_3 0
I_4_0 43
I_4_1 0
I_4_2 43
I_4_3 0
I_5_0 69
I_5_1 0
I_5_2 6.8999999999999986e+01
I_5_3 1.7236212457305555e-14
I_6_0 102
I_6_1 1.0199999999999989e+02
I_6_2 5.0999999999999886e+01
I_6_3 1.4210854715202004e-13
I_7_0 91
I_7_1 0
I_7_2 91
I_7_3 0
I_8_0 51
I_8_1 0
I_8_2 51
I_8_3 0
I_9_0 110
I_9_1 55
I_9_2 110
I_9_3 55
I_10_0 198
I_10_1 198
I_10_2 99
I_10_3 0
q_1_0 0
q_1_1 52
q_1_2 0
q_2_0 0
q_2_1 88
q_2_2 0
q_3_0 0
q_3_1 38
q_3_2 0
q_4_0 0
q_4_1 86
q_4_2 0
q_5_0 0
q_5_1 138
q_5_2 3.1447067172507559e-14
q_6_0 5.0999999999999879e+01
q_6_1 7.1054273576010019e-15
q_6_2 2.5579538487363607e-13
q_7_0 0
q_7_1 182
q_7_2 0
q_8_0 0
q_8_1 102
q_8_2 0
q_9_0 0
q_9_1 110
q_9_2 0
q_10_0 99
q_10_1 0
q_10_2 0
y_0_0 1
y_0_1 1
y_0_2 3.6082248300317588e-16
y_1_0 0
y_1_1 1
y_1_2 0
y_2_0 0
y_2_1 1
y_2_2 0
y_3_0 0
y_3_1 1
y_3_2 0
y_4_0 0
y_4_1 1
y_4_2 0
y_5_0 0
y_5_1 9.9999999999999978e-01
y_5_2 2.4980018054066022e-16
y_6_0 9.9999999999999767e-01
y_6_1 0
y_6_2 1.7763568394002505e-15
y_7_0 0
y_7_1 1
y_7_2 0
y_8_0 0
y_8_1 1
y_8_2 0
y_9_0 0
y_9_1 1
y_9_2 0
y_10_0 1
y_10_1 0
y_10_2 0
x_0_1_0 0
x_0_1_1 0
x_0_1_2 0
x_0_2_0 0
x_0_2_1 0
x_0_2_2 0
x_0_3_0 0
x_0_3_1 1.0000000000000009e+00
x_0_3_2 -1.1102230246251565e-15
x_0_4_0 0
x_0_4_1 0
x_0_4_2 0
x_0_5_0 0
x_0_5_1 9.9999999999999911e-01
x_0_5_2 0
x_0_6_0 0.999999999999998
x_0_6_1 0
x_0_6_2 2.8865798640254070e-15
x_0_7_0 0
x_0_7_1 0
x_0_7_2 0
x_0_8_0 0
x_0_8_1 0
x_0_8_2 0
x_0_9_0 0
x_0_9_1 0
x_0_9_2 0
x_0_10_0 1.0000000000000022e+00
x_0_10_1 0
x_0_10_2 -1.1102230246251565e-15
x_1_2_0 0
x_1_2_1 0
x_1_2_2 0
x_1_3_0 0
x_1_3_1 0
x_1_3_2 0
x_1_4_0 0
x_1_4_1 9.9999999999999956e-01
x_1_4_2 0
x_1_5_0 0
x_1_5_1 0
x_1_5_2 0
x_1_6_0 0
x_1_6_1 0
x_1_6_2 0
x_1_7_0 0
x_1_7_1 1
x_1_7_2 0
x_1_8_0 0
x_1_8_1 0
x_1_8_2 0
x_1_9_0 0
x_1_9_1 8.3266726846886741e-16
x_1_9_2 0
x_1_10_0 0
x_1_10_1 0
x_1_10_2 0
x_2_3_0 0
x_2_3_1 -5.5511151231257827e-16
x_2_3_2 0
x_2_4_0 0
x_2_4_1 6.1062266354383610e-16
x_2_4_2 0
x_2_5_0 0
x_2_5_1 0
x_2_5_2 0
x_2_6_0 0
x_2_6_1 0
x_2_6_2 0
x_2_7_0 0
x_2_7_1 0
x_2_7_2 0
x_2_8_0 0
x_2_8_1 1
x_2_8_2 0
x_2_9_0 0
x_2_9_1 1.0000000000000002e+00
x_2_9_2 0
x_2_10_0 0
x_2_10_1 0
x_2_10_2 0
x_3_4_0 0
x_3_4_1 0
x_3_4_2 0
x_3_5_0 0
x_3_5_1 0
x_3_5_2 0
x_3_6_0 0
x_3_6_1 0
x_3_6_2 0
x_3_7_0 0
x_3_7_1 0
x_3_7_2 0
x_3_8_0 0
x_3_8_1 9.9999999999999978e-01
x_3_8_2 0
x_3_9_0 0
x_3_9_1 0
x_3_9_2 0
x_3_10_0 0
x_3_10_1 0
x_3_10_2 1.1102230246251565e-15
x_4_5_0 0
x_4_5_1 0
x_4_5_2 0
x_4_6_0 0
x_4_6_1 0
x_4_6_2 0
x_4_7_0 0
x_4_7_1 5.5511151231257827e-16
x_4_7_2 0
x_4_8_0 0
x_4_8_1 0
x_4_8_2 0
x_4_9_0 0
x_4_9_1 9.9999999999999956e-01
x_4_9_2 0
x_4_10_0 0
x_4_10_1 0
x_4_10_2 0
x_5_6_0 0
x_5_6_1 0
x_5_6_2 4.9960036108132044e-16
x_5_7_0 0
x_5_7_1 9.9999999999999956e-01
x_5_7_2 0
x_5_8_0 0
x_5_8_1 0
x_5_8_2 0
x_5_9_0 0
x_5_9_1 0
x_5_9_2 0
x_5_10_0 0
x_5_10_1 0
x_5_10_2 0
x_6_7_0 0
x_6_7_1 0
x_6_7_2 0
x_6_8_0 0
x_6_8_1 2.7755575615628914e-16
x_6_8_2 0
x_6_9_0 0
x_6_9_1 -3.8857805861880479e-16
x_6_9_2 0
x_6_10_0 9.9999999999999778e-01
x_6_10_1 0
x_6_10_2 0
x_7_8_0 0
x_7_8_1 0
x_7_8_2 0
x_7_9_0 0
x_7_9_1 0
x_7_9_2 0
x_7_10_0 0
x_7_10_1 0
x_7_10_2 0
x_8_9_0 0
x_8_9_1 0
x_8_9_2 0
x_8_10_0 0
x_8_10_1 0
x_8_10_2 0
x_9_10_0 0
x_9_10_1 0
x_9_10_2 0
